SCIP version 5.0.0 [precision: 8 byte] [memory: block] [mode: optimized] [LP solver: NONE] [GitHash: 3bbd232]
Copyright (C) 2002-2017 Konrad-Zuse-Zentrum fuer Informationstechnik Berlin (ZIB)

External codes: 
  Readline EditLine w  GNU library for command line editing (gnu.org/s/readline)
  CppAD 20160000.1     Algorithmic Differentiation of C++ algorithms developed by B. Bell (www.coin-or.org/CppAD)
  ZLIB 1.2.5           General purpose compression library by J. Gailly and M. Adler (zlib.net)
  GMP 6.1.2            GNU Multiple Precision Arithmetic Library developed by T. Granlund (gmplib.org)

user parameter file <scip.set> not found - using default parameters

read problem <../../Split_data/output/breast/6/0_sample_breast.logreg>
============

File name	:	../../Split_data/output/breast/6/0_sample_breast.logreg
Problem name 	:	0_sample_breast
Number of data	:	155
Number of var	:	33
The given data has linear independence

[dim=1] time: 0.00601
[dim=2] time: 0.012202
[dim=3] time: 0.018143
[dim=4] time: 0.023784
[dim=5] time: 0.027622
[dim=6] Time of forward = 0.031327sec.
AIC: 147.292
k: 5

[dim=33] time: 0.015833
[dim=32] time: 0.036644
[dim=31] time: 0.048862
[dim=30] time: 0.057763
[dim=29] time: 0.066869
[dim=28] time: 0.079939
[dim=27] time: 0.08827
[dim=26] time: 0.095797
[dim=25] time: 0.101913
[dim=24] time: 0.108602
[dim=23] time: 0.115561
[dim=22] Time of backward = 0.122854sec.
AIC: 130.665
k: 23
